<number of tasks>
28

<cycle time>
138

<task times>
1 70
2 59
3 33
4 6
5 1
6 27
7 17
8 62
9 31
10 53
11 21
12 19
13 108
14 52
15 5
16 8
17 97
18 8
19 47
20 67
21 17
22 8
23 3
24 21
25 107
26 3
27 2
28 72

<precedence relations>
1,2
1,3
1,4
1,5
1,8
1,19
1,21
1,22
1,23
1,24
1,26
2,6
2,17
3,28
4,28
5,28
6,7
7,18
8,9
9,10
10,11
10,12
11,15
12,13
13,14
13,16
14,28
15,28
16,28
17,28
18,28
19,20
20,28
21,28
22,28
23,28
24,25
25,28
26,27
27,28

<setup times forward>
1,2:12
1,3:4
1,4:4
1,5:3
1,8:10
1,19:3
1,21:8
1,22:10
1,23:7
1,24:3
1,26:12
2,3:16
2,4:8
2,5:9
2,6:19
2,8:22
2,9:5
2,10:16
2,11:25
2,12:14
2,13:9
2,14:3
2,15:27
2,16:26
2,17:1
2,19:9
2,20:3
2,21:4
2,22:22
2,23:5
2,24:15
2,25:17
2,26:24
2,27:29
3,2:16
3,4:8
3,5:7
3,6:3
3,7:4
3,8:6
3,9:11
3,11:9
3,12:2
3,13:7
3,14:13
3,15:11
3,16:10
3,17:15
3,18:1
3,19:7
3,20:13
3,21:12
3,22:6
3,23:11
3,24:1
3,25:1
3,26:8
3,27:13
3,28:7
4,2:8
4,3:8
4,5:1
4,6:11
4,7:4
4,8:14
4,9:3
4,10:8
4,11:17
4,12:6
4,13:1
4,14:5
4,15:19
4,16:18
4,17:7
4,18:7
4,19:1
4,20:5
4,21:4
4,22:14
4,23:3
4,24:7
4,25:9
4,26:16
4,27:21
4,28:1
5,2:9
5,3:7
5,4:1
5,6:10
5,7:3
5,8:13
5,9:4
5,10:7
5,11:16
5,12:5
5,14:6
5,15:18
5,16:17
5,17:8
5,18:6
5,20:6
5,21:5
5,22:13
5,23:4
5,24:6
5,25:8
5,26:15
5,27:20
6,3:3
6,4:11
6,5:10
6,7:7
6,8:3
6,9:14
6,10:3
6,11:6
6,12:5
6,13:10
6,14:16
6,15:8
6,16:7
6,17:18
6,19:10
6,20:16
6,21:15
6,22:3
6,23:14
6,24:4
6,25:2
6,26:5
6,27:10
7,3:4
7,4:4
7,5:3
7,8:10
7,9:7
7,10:4
7,11:13
7,12:2
7,13:3
7,14:9
7,15:15
7,16:14
7,17:11
7,18:3
7,19:3
7,20:9
7,21:8
7,22:10
7,23:7
7,24:3
7,25:5
7,26:12
7,27:17
8,2:22
8,3:6
8,4:14
8,5:13
8,6:3
8,7:10
8,9:17
8,17:21
8,18:7
8,19:13
8,20:19
8,21:18
8,23:17
8,24:7
8,25:5
8,26:2
8,27:7
9,2:5
9,3:11
9,4:3
9,5:4
9,6:14
9,7:7
9,10:11
9,17:4
9,18:10
9,19:4
9,20:2
9,21:1
9,22:17
9,24:10
9,25:12
9,26:19
9,27:24
10,2:16
10,4:8
10,5:7
10,6:3
10,7:4
10,11:9
10,12:2
10,17:15
10,18:1
10,19:7
10,20:13
10,21:12
10,22:6
10,23:11
10,24:1
10,25:1
10,26:8
10,27:13
11,2:25
11,3:9
11,4:17
11,5:16
11,6:6
11,7:13
11,12:11
11,13:16
11,14:22
11,15:2
11,16:1
11,17:24
11,18:10
11,19:16
11,20:22
11,21:21
11,22:3
11,23:20
11,24:10
11,25:8
11,26:1
11,27:4
12,2:14
12,3:2
12,4:6
12,5:5
12,6:5
12,7:2
12,11:11
12,13:5
12,15:13
12,17:13
12,18:1
12,19:5
12,20:11
12,21:10
12,22:8
12,23:9
12,24:1
12,25:3
12,26:10
12,27:15
13,2:9
13,3:7
13,4:1
13,6:10
13,7:3
13,11:16
13,14:6
13,15:18
13,16:17
13,17:8
13,18:6
13,20:6
13,21:5
13,22:13
13,23:4
13,24:6
13,25:8
13,26:15
13,27:20
14,2:3
14,3:13
14,4:5
14,5:6
14,6:16
14,7:9
14,11:22
14,15:24
14,16:23
14,17:2
14,18:12
14,19:6
14,21:1
14,22:19
14,23:2
14,24:12
14,25:14
14,26:21
14,27:26
14,28:6
15,2:27
15,3:11
15,4:19
15,5:18
15,6:8
15,7:15
15,12:13
15,13:18
15,14:24
15,16:1
15,17:26
15,18:12
15,19:18
15,20:24
15,21:23
15,22:5
15,23:22
15,24:12
15,25:10
15,26:3
15,27:2
15,28:18
16,2:26
16,3:10
16,4:18
16,5:17
16,6:7
16,7:14
16,11:1
16,14:23
16,15:1
16,17:25
16,18:11
16,19:17
16,20:23
16,21:22
16,22:4
16,23:21
16,24:11
16,25:9
16,26:2
16,27:3
16,28:17
17,3:15
17,4:7
17,5:8
17,6:18
17,7:11
17,8:21
17,9:4
17,10:15
17,11:24
17,12:13
17,13:8
17,14:2
17,15:26
17,16:25
17,18:14
17,19:8
17,20:2
17,21:3
17,22:21
17,23:4
17,24:14
17,25:16
17,26:23
17,27:28
17,28:8
18,3:1
18,4:7
18,5:6
18,8:7
18,9:10
18,10:1
18,11:10
18,12:1
18,13:6
18,14:12
18,15:12
18,16:11
18,17:14
18,19:6
18,20:12
18,21:11
18,22:7
18,23:10
18,25:2
18,26:9
18,27:14
18,28:6
19,2:9
19,3:7
19,4:1
19,6:10
19,7:3
19,8:13
19,9:4
19,10:7
19,11:16
19,12:5
19,14:6
19,15:18
19,16:17
19,17:8
19,18:6
19,20:6
19,21:5
19,22:13
19,23:4
19,24:6
19,25:8
19,26:15
19,27:20
20,2:3
20,3:13
20,4:5
20,5:6
20,6:16
20,7:9
20,8:19
20,9:2
20,10:13
20,11:22
20,12:11
20,13:6
20,15:24
20,16:23
20,17:2
20,18:12
20,21:1
20,22:19
20,23:2
20,24:12
20,25:14
20,26:21
20,27:26
20,28:6
21,2:4
21,3:12
21,4:4
21,5:5
21,6:15
21,7:8
21,8:18
21,9:1
21,10:12
21,11:21
21,12:10
21,13:5
21,14:1
21,15:23
21,16:22
21,17:3
21,18:11
21,19:5
21,20:1
21,22:18
21,23:1
21,24:11
21,25:13
21,26:20
21,27:25
21,28:5
22,2:22
22,3:6
22,4:14
22,5:13
22,6:3
22,7:10
22,9:17
22,10:6
22,11:3
22,12:8
22,13:13
22,14:19
22,15:5
22,16:4
22,17:21
22,18:7
22,19:13
22,20:19
22,21:18
22,23:17
22,24:7
22,25:5
22,26:2
22,27:7
22,28:13
23,2:5
23,3:11
23,4:3
23,5:4
23,6:14
23,7:7
23,8:17
23,10:11
23,11:20
23,12:9
23,13:4
23,14:2
23,15:22
23,16:21
23,17:4
23,18:10
23,19:4
23,20:2
23,21:1
23,22:17
23,24:10
23,25:12
23,26:19
23,27:24
23,28:4
24,2:15
24,3:1
24,4:7
24,5:6
24,6:4
24,7:3
24,8:7
24,9:10
24,10:1
24,11:10
24,12:1
24,13:6
24,14:12
24,15:12
24,16:11
24,17:14
24,19:6
24,20:12
24,21:11
24,22:7
24,23:10
24,25:2
24,26:9
24,27:14
25,2:17
25,3:1
25,4:9
25,5:8
25,6:2
25,7:5
25,8:5
25,9:12
25,10:1
25,11:8
25,12:3
25,13:8
25,14:14
25,15:10
25,16:9
25,17:16
25,18:2
25,19:8
25,20:14
25,21:13
25,22:5
25,23:12
25,26:7
25,27:12
25,28:8
26,2:24
26,3:8
26,4:16
26,5:15
26,6:5
26,7:12
26,8:2
26,9:19
26,10:8
26,11:1
26,12:10
26,13:15
26,14:21
26,15:3
26,16:2
26,17:23
26,18:9
26,19:15
26,20:21
26,21:20
26,22:2
26,23:19
26,24:9
26,25:7
26,27:5
27,2:29
27,3:13
27,4:21
27,5:20
27,6:10
27,7:17
27,8:7
27,9:24
27,10:13
27,11:4
27,12:15
27,13:20
27,14:26
27,15:2
27,16:3
27,17:28
27,18:14
27,19:20
27,20:26
27,21:25
27,22:7
27,23:24
27,24:14
27,25:12
27,28:20

<setup times backward>
1,1:30
2,1:42
2,2:30
2,3:46
2,4:38
2,5:39
2,8:52
2,9:35
2,10:46
2,11:55
2,12:44
2,13:39
2,14:33
2,15:57
2,16:56
2,19:39
2,20:33
2,21:34
2,22:52
2,23:35
2,24:45
2,25:47
2,26:54
2,27:59
3,1:26
3,2:14
3,3:30
3,4:22
3,5:23
3,6:33
3,7:26
3,8:36
3,9:19
3,10:30
3,11:39
3,12:28
3,13:23
3,14:17
3,15:41
3,16:40
3,17:15
3,18:29
3,19:23
3,20:17
3,21:18
3,22:36
3,23:19
3,24:29
3,25:31
3,26:38
3,27:43
4,1:34
4,2:22
4,3:38
4,4:30
4,5:31
4,6:41
4,7:34
4,8:44
4,9:27
4,10:38
4,11:47
4,12:36
4,13:31
4,14:25
4,15:49
4,16:48
4,17:23
4,18:37
4,19:31
4,20:25
4,21:26
4,22:44
4,23:27
4,24:37
4,25:39
4,26:46
4,27:51
5,1:33
5,2:21
5,3:37
5,4:29
5,5:30
5,6:40
5,7:33
5,8:43
5,9:26
5,10:37
5,11:46
5,12:35
5,13:30
5,14:24
5,15:48
5,16:47
5,17:22
5,18:36
5,19:30
5,20:24
5,21:25
5,22:43
5,23:26
5,24:36
5,25:38
5,26:45
5,27:50
6,1:23
6,2:11
6,3:27
6,4:19
6,5:20
6,6:30
6,8:33
6,9:16
6,10:27
6,11:36
6,12:25
6,13:20
6,14:14
6,15:38
6,16:37
6,17:12
6,19:20
6,20:14
6,21:15
6,22:33
6,23:16
6,24:26
6,25:28
6,26:35
6,27:40
7,1:30
7,2:18
7,3:34
7,4:26
7,5:27
7,6:37
7,7:30
7,8:40
7,9:23
7,10:34
7,11:43
7,12:32
7,13:27
7,14:21
7,15:45
7,16:44
7,17:19
7,19:27
7,20:21
7,21:22
7,22:40
7,23:23
7,24:33
7,25:35
7,26:42
7,27:47
8,1:20
8,2:8
8,3:24
8,4:16
8,5:17
8,6:27
8,7:20
8,8:30
8,17:9
8,18:23
8,19:17
8,20:11
8,21:12
8,22:30
8,23:13
8,24:23
8,25:25
8,26:32
8,27:37
9,1:37
9,2:25
9,3:41
9,4:33
9,5:34
9,6:44
9,7:37
9,8:47
9,9:30
9,17:26
9,18:40
9,19:34
9,20:28
9,21:29
9,22:47
9,23:30
9,24:40
9,25:42
9,26:49
9,27:54
10,1:26
10,2:14
10,3:30
10,4:22
10,5:23
10,6:33
10,7:26
10,8:36
10,9:19
10,10:30
10,17:15
10,18:29
10,19:23
10,20:17
10,21:18
10,22:36
10,23:19
10,24:29
10,25:31
10,26:38
10,27:43
11,1:17
11,2:5
11,3:21
11,4:13
11,5:14
11,6:24
11,7:17
11,8:27
11,9:10
11,10:21
11,11:30
11,12:19
11,13:14
11,14:8
11,16:31
11,17:6
11,18:20
11,19:14
11,20:8
11,21:9
11,22:27
11,23:10
11,24:20
11,25:22
11,26:29
11,27:34
12,1:28
12,2:16
12,3:32
12,4:24
12,5:25
12,6:35
12,7:28
12,8:38
12,9:21
12,10:32
12,11:41
12,12:30
12,15:43
12,17:17
12,18:31
12,19:25
12,20:19
12,21:20
12,22:38
12,23:21
12,24:31
12,25:33
12,26:40
12,27:45
13,1:33
13,2:21
13,3:37
13,4:29
13,5:30
13,6:40
13,7:33
13,8:43
13,9:26
13,10:37
13,11:46
13,12:35
13,13:30
13,15:48
13,17:22
13,18:36
13,19:30
13,20:24
13,21:25
13,22:43
13,23:26
13,24:36
13,25:38
13,26:45
13,27:50
14,1:39
14,2:27
14,3:43
14,4:35
14,5:36
14,6:46
14,7:39
14,8:49
14,9:32
14,10:43
14,11:52
14,12:41
14,13:36
14,14:30
14,15:54
14,16:53
14,17:28
14,18:42
14,19:36
14,20:30
14,21:31
14,22:49
14,23:32
14,24:42
14,25:44
14,26:51
14,27:56
15,1:15
15,2:3
15,3:19
15,4:11
15,5:12
15,6:22
15,7:15
15,8:25
15,9:8
15,10:19
15,11:28
15,12:17
15,13:12
15,14:6
15,15:30
15,16:29
15,17:4
15,18:18
15,19:12
15,20:6
15,21:7
15,22:25
15,23:8
15,24:18
15,25:20
15,26:27
15,27:32
16,1:16
16,2:4
16,3:20
16,4:12
16,5:13
16,6:23
16,7:16
16,8:26
16,9:9
16,10:20
16,11:29
16,12:18
16,13:13
16,14:7
16,15:31
16,16:30
16,17:5
16,18:19
16,19:13
16,20:7
16,21:8
16,22:26
16,23:9
16,24:19
16,25:21
16,26:28
16,27:33
17,1:41
17,2:29
17,3:45
17,4:37
17,5:38
17,6:48
17,7:41
17,8:51
17,9:34
17,10:45
17,11:54
17,12:43
17,13:38
17,14:32
17,15:56
17,16:55
17,17:30
17,18:44
17,19:38
17,20:32
17,21:33
17,22:51
17,23:34
17,24:44
17,25:46
17,26:53
17,27:58
18,1:27
18,2:15
18,3:31
18,4:23
18,5:24
18,6:34
18,7:27
18,8:37
18,9:20
18,10:31
18,11:40
18,12:29
18,13:24
18,14:18
18,15:42
18,16:41
18,17:16
18,18:30
18,19:24
18,20:18
18,21:19
18,22:37
18,23:20
18,24:30
18,25:32
18,26:39
18,27:44
19,1:33
19,2:21
19,3:37
19,4:29
19,5:30
19,6:40
19,7:33
19,8:43
19,9:26
19,10:37
19,11:46
19,12:35
19,13:30
19,14:24
19,15:48
19,16:47
19,17:22
19,18:36
19,19:30
19,21:25
19,22:43
19,23:26
19,24:36
19,25:38
19,26:45
19,27:50
20,1:39
20,2:27
20,3:43
20,4:35
20,5:36
20,6:46
20,7:39
20,8:49
20,9:32
20,10:43
20,11:52
20,12:41
20,13:36
20,14:30
20,15:54
20,16:53
20,17:28
20,18:42
20,19:36
20,20:30
20,21:31
20,22:49
20,23:32
20,24:42
20,25:44
20,26:51
20,27:56
21,1:38
21,2:26
21,3:42
21,4:34
21,5:35
21,6:45
21,7:38
21,8:48
21,9:31
21,10:42
21,11:51
21,12:40
21,13:35
21,14:29
21,15:53
21,16:52
21,17:27
21,18:41
21,19:35
21,20:29
21,21:30
21,22:48
21,23:31
21,24:41
21,25:43
21,26:50
21,27:55
22,1:20
22,2:8
22,3:24
22,4:16
22,5:17
22,6:27
22,7:20
22,8:30
22,9:13
22,10:24
22,11:33
22,12:22
22,13:17
22,14:11
22,15:35
22,16:34
22,17:9
22,18:23
22,19:17
22,20:11
22,21:12
22,22:30
22,23:13
22,24:23
22,25:25
22,26:32
22,27:37
23,1:37
23,2:25
23,3:41
23,4:33
23,5:34
23,6:44
23,7:37
23,8:47
23,9:30
23,10:41
23,11:50
23,12:39
23,13:34
23,14:28
23,15:52
23,16:51
23,17:26
23,18:40
23,19:34
23,20:28
23,21:29
23,22:47
23,23:30
23,24:40
23,25:42
23,26:49
23,27:54
24,1:27
24,2:15
24,3:31
24,4:23
24,5:24
24,6:34
24,7:27
24,8:37
24,9:20
24,10:31
24,11:40
24,12:29
24,13:24
24,14:18
24,15:42
24,16:41
24,17:16
24,18:30
24,19:24
24,20:18
24,21:19
24,22:37
24,23:20
24,24:30
24,26:39
24,27:44
25,1:25
25,2:13
25,3:29
25,4:21
25,5:22
25,6:32
25,7:25
25,8:35
25,9:18
25,10:29
25,11:38
25,12:27
25,13:22
25,14:16
25,15:40
25,16:39
25,17:14
25,18:28
25,19:22
25,20:16
25,21:17
25,22:35
25,23:18
25,24:28
25,25:30
25,26:37
25,27:42
26,1:18
26,2:6
26,3:22
26,4:14
26,5:15
26,6:25
26,7:18
26,8:28
26,9:11
26,10:22
26,11:31
26,12:20
26,13:15
26,14:9
26,15:33
26,16:32
26,17:7
26,18:21
26,19:15
26,20:9
26,21:10
26,22:28
26,23:11
26,24:21
26,25:23
26,26:30
27,1:13
27,2:1
27,3:17
27,4:9
27,5:10
27,6:20
27,7:13
27,8:23
27,9:6
27,10:17
27,11:26
27,12:15
27,13:10
27,14:4
27,15:28
27,16:27
27,17:2
27,18:16
27,19:10
27,20:4
27,21:5
27,22:23
27,23:6
27,24:16
27,25:18
27,26:25
27,27:30
28,1:33
28,2:21
28,3:37
28,4:29
28,5:30
28,6:40
28,7:33
28,8:43
28,9:26
28,10:37
28,11:46
28,12:35
28,13:30
28,14:24
28,15:48
28,16:47
28,17:22
28,18:36
28,19:30
28,20:24
28,21:25
28,22:43
28,23:26
28,24:36
28,25:38
28,26:45
28,27:50
28,28:30

<end>

<optimal SALBP-1 value>
8


<rand seed>
467321153

<Lower Bounds>
Lm1=8
Lms1=8
Lm2=5
Lm3=7
Lm4=8
Best=8

<Optimal Stations (Iterations: 10)>
14
